TERM = { '.', s0, s1, s10, s11, s12, s5, s6, s7, s8, s9, s13};
null = '.';
s = 13;
n = 7;
min = 13;
N0 = 0;
ZEROARYOP = {};
zeroout = [];
zerogas = [];
zerosz =  [];
zerolb =  [];
zeroub =  [];
N1 = 4;
UNARYOP = { NOT_0, ISZERO_0, ISZERO_1, ISZERO_2 };
unin = [ s13, s6, s0, s7 ];
unout = [ s11, s12, s7, s8 ];
ungas = [ 3, 3, 3, 3 ];
unsz = [ 1, 1, 1, 1 ];
unlb = [ 1, 1, 1, 1 ];
unub = [ 13, 13, 13, 13 ];
N2 = 3;
BINARYOP = { DIV_0, AND_0, GT_0 };
binin1 = [s11, s8, s1 ];
binin2 = [s0, s9, s10 ];
binout = [s10, s6, s9 ];
bincomm = [false, true, false ];
bingas = [5, 3, 3 ];
binsz = [1, 1, 1 ];
binlb = [ 1, 1, 1 ];
binub = [ 13, 13, 13 ];
NA = 0;
ASSOCIATIVEADDOP = {};
naddin =  [];
addin =  [||];
addout = [];
addcomm = [];
addgas = [];
addsz =  [];
addlb =  [];
addub =  [];
NPUSH = 2;
PUSHOP = { 'PUSH [tag]_0', PUSH_0 };
pushout = [ s5, s13 ];
pushgas = [ 3, 3 ];
pushsz = [ 3, 2 ];
pushlb = [ 1, 1 ];
pushub = [ 13, 13 ];
NSTORE = 0;
STOROP = {};
storin1 =  [];
storin2 =  [];
storlb =  [];
storub =  [];
storgas = [];
storsz = [];
DUP_ENUM = { DUP1, DUP2, DUP3, DUP4, DUP5, DUP6};
SWAP_ENUM = { SWAP1, SWAP2, SWAP3, SWAP4, SWAP5, SWAP6};
startstack = [ s0, s1, null, null, null, null, null ];
endstack = [ s5, s12, s13, s0, s1, null, null ];
m_dep_n = 0;
memory_dependences = [| |];
s_dep_n = 0;
store_dependences = [| |];
